SumColouring/JavaBacktracker/RandomInstances/24_0.70_2.col
c File: instances/24_0.70_2.col
c
c Description: Random graph of size 24 vertices and P(0.7000000000000001) of edges between any two vertices.
p col 24 276
e 1 3
e 1 5
e 1 7
e 1 9
e 1 15
e 1 16
e 1 18
e 1 19
e 1 21
e 1 23
e 1 24
e 2 3
e 2 4
e 2 5
e 2 6
e 2 7
e 2 8
e 2 9
e 2 10
e 2 11
e 2 12
e 2 15
e 2 16
e 2 17
e 2 18
e 2 21
e 2 23
e 2 24
e 3 4
e 3 6
e 3 8
e 3 10
e 3 13
e 3 14
e 3 17
e 3 18
e 3 19
e 3 20
e 3 22
e 3 24
e 4 6
e 4 7
e 4 8
e 4 9
e 4 10
e 4 11
e 4 13
e 4 14
e 4 15
e 4 16
e 4 18
e 4 19
e 4 20
e 4 21
e 4 22
e 4 23
e 4 24
e 5 8
e 5 9
e 5 10
e 5 11
e 5 13
e 5 14
e 5 15
e 5 16
e 5 18
e 5 19
e 5 20
e 5 21
e 5 23
e 6 8
e 6 9
e 6 12
e 6 16
e 6 17
e 6 18
e 6 19
e 6 22
e 6 24
e 7 9
e 7 10
e 7 12
e 7 14
e 7 16
e 7 17
e 7 18
e 7 19
e 7 21
e 7 22
e 7 24
e 8 10
e 8 12
e 8 13
e 8 14
e 8 15
e 8 16
e 8 17
e 8 18
e 8 19
e 8 20
e 8 21
e 8 22
e 8 23
e 8 24
e 9 10
e 9 12
e 9 13
e 9 15
e 9 16
e 9 17
e 9 18
e 9 19
e 9 20
e 9 22
e 10 11
e 10 12
e 10 13
e 10 14
e 10 15
e 10 16
e 10 17
e 10 19
e 10 20
e 10 22
e 10 23
e 10 24
e 11 12
e 11 13
e 11 15
e 11 16
e 11 19
e 11 21
e 11 22
e 11 23
e 12 13
e 12 14
e 12 15
e 12 16
e 12 17
e 12 18
e 12 19
e 12 20
e 12 22
e 12 24
e 13 14
e 13 15
e 13 16
e 13 18
e 13 19
e 13 22
e 13 23
e 14 15
e 14 17
e 14 20
e 14 21
e 14 23
e 14 24
e 15 16
e 15 17
e 15 18
e 15 19
e 15 20
e 15 21
e 15 22
e 15 24
e 16 17
e 16 18
e 16 22
e 16 23
e 17 18
e 17 19
e 17 20
e 17 21
e 17 24
e 18 19
e 18 21
e 18 22
e 18 23
e 18 24
e 19 20
e 19 21
e 19 22
e 19 23
e 19 24
e 20 21
e 20 22
e 20 23
e 20 24
e 21 22
e 21 23
e 21 24
e 22 23
e 23 24